c FILE: 1-FullIns_4.col

c SOURCE: M. Caramia (caramia@iac.rm.cnr.it) and P. Dell'Olmo (paolo.dellolmo@uniroma1.it)

c DESCRIPTION: 1-FullIns graph of order 4

p edge 93 593
e 1 2
e 1 4
e 1 11
e 1 13
e 1 32
e 1 34
e 1 41
e 1 43
e 2 3
e 2 10
e 2 12
e 2 31
e 2 33
e 2 40
e 2 42
e 3 6
e 3 8
e 3 11
e 3 15
e 3 17
e 3 32
e 3 36
e 3 38
e 3 41
e 3 45
e 3 47
e 4 5
e 4 8
e 4 10
e 4 14
e 4 17
e 4 31
e 4 35
e 4 38
e 4 40
e 4 44
e 4 47
e 5 7
e 5 9
e 5 13
e 5 16
e 5 18
e 5 34
e 5 37
e 5 39
e 5 43
e 5 46
e 5 48
e 6 7
e 6 9
e 6 12
e 6 16
e 6 18
e 6 33
e 6 37
e 6 39
e 6 42
e 6 46
e 6 48
e 7 8
e 7 9
e 7 14
e 7 15
e 7 17
e 7 18
e 7 35
e 7 36
e 7 38
e 7 39
e 7 44
e 7 45
e 7 47
e 7 48
e 8 9
e 8 12
e 8 13
e 8 16
e 8 18
e 8 33
e 8 34
e 8 37
e 8 39
e 8 42
e 8 43
e 8 46
e 8 48
e 9 14
e 9 15
e 9 16
e 9 17
e 9 35
e 9 36
e 9 37
e 9 38
e 9 44
e 9 45
e 9 46
e 9 47
e 10 20
e 10 22
e 10 29
e 10 32
e 10 34
e 10 50
e 10 52
e 10 59
e 11 19
e 11 21
e 11 29
e 11 31
e 11 33
e 11 49
e 11 51
e 11 59
e 12 20
e 12 24
e 12 26
e 12 29
e 12 32
e 12 36
e 12 38
e 12 50
e 12 54
e 12 56
e 12 59
e 13 19
e 13 23
e 13 26
e 13 29
e 13 31
e 13 35
e 13 38
e 13 49
e 13 53
e 13 56
e 13 59
e 14 22
e 14 25
e 14 27
e 14 29
e 14 34
e 14 37
e 14 39
e 14 52
e 14 55
e 14 57
e 14 59
e 15 21
e 15 25
e 15 27
e 15 29
e 15 33
e 15 37
e 15 39
e 15 51
e 15 55
e 15 57
e 15 59
e 16 23
e 16 24
e 16 26
e 16 27
e 16 29
e 16 35
e 16 36
e 16 38
e 16 39
e 16 53
e 16 54
e 16 56
e 16 57
e 16 59
e 17 21
e 17 22
e 17 25
e 17 27
e 17 29
e 17 33
e 17 34
e 17 37
e 17 39
e 17 51
e 17 52
e 17 55
e 17 57
e 17 59
e 18 23
e 18 24
e 18 25
e 18 26
e 18 29
e 18 35
e 18 36
e 18 37
e 18 38
e 18 53
e 18 54
e 18 55
e 18 56
e 18 59
e 19 28
e 19 30
e 19 41
e 19 43
e 19 58
e 19 60
e 20 28
e 20 30
e 20 40
e 20 42
e 20 58
e 20 60
e 21 28
e 21 30
e 21 41
e 21 45
e 21 47
e 21 58
e 21 60
e 22 28
e 22 30
e 22 40
e 22 44
e 22 47
e 22 58
e 22 60
e 23 28
e 23 30
e 23 43
e 23 46
e 23 48
e 23 58
e 23 60
e 24 28
e 24 30
e 24 42
e 24 46
e 24 48
e 24 58
e 24 60
e 25 28
e 25 30
e 25 44
e 25 45
e 25 47
e 25 48
e 25 58
e 25 60
e 26 28
e 26 30
e 26 42
e 26 43
e 26 46
e 26 48
e 26 58
e 26 60
e 27 28
e 27 30
e 27 44
e 27 45
e 27 46
e 27 47
e 27 58
e 27 60
e 28 29
e 28 30
e 28 49
e 28 50
e 28 51
e 28 52
e 28 53
e 28 54
e 28 55
e 28 56
e 28 57
e 28 59
e 28 60
e 29 30
e 29 40
e 29 41
e 29 42
e 29 43
e 29 44
e 29 45
e 29 46
e 29 47
e 29 48
e 29 58
e 29 60
e 30 49
e 30 50
e 30 51
e 30 52
e 30 53
e 30 54
e 30 55
e 30 56
e 30 57
e 30 58
e 30 59
e 31 62
e 31 64
e 31 71
e 31 73
e 31 92
e 32 61
e 32 63
e 32 70
e 32 72
e 32 92
e 33 62
e 33 66
e 33 68
e 33 71
e 33 75
e 33 77
e 33 92
e 34 61
e 34 65
e 34 68
e 34 70
e 34 74
e 34 77
e 34 92
e 35 64
e 35 67
e 35 69
e 35 73
e 35 76
e 35 78
e 35 92
e 36 63
e 36 67
e 36 69
e 36 72
e 36 76
e 36 78
e 36 92
e 37 65
e 37 66
e 37 68
e 37 69
e 37 74
e 37 75
e 37 77
e 37 78
e 37 92
e 38 63
e 38 64
e 38 67
e 38 69
e 38 72
e 38 73
e 38 76
e 38 78
e 38 92
e 39 65
e 39 66
e 39 67
e 39 68
e 39 74
e 39 75
e 39 76
e 39 77
e 39 92
e 40 62
e 40 64
e 40 80
e 40 82
e 40 89
e 40 92
e 41 61
e 41 63
e 41 79
e 41 81
e 41 89
e 41 92
e 42 62
e 42 66
e 42 68
e 42 80
e 42 84
e 42 86
e 42 89
e 42 92
e 43 61
e 43 65
e 43 68
e 43 79
e 43 83
e 43 86
e 43 89
e 43 92
e 44 64
e 44 67
e 44 69
e 44 82
e 44 85
e 44 87
e 44 89
e 44 92
e 45 63
e 45 67
e 45 69
e 45 81
e 45 85
e 45 87
e 45 89
e 45 92
e 46 65
e 46 66
e 46 68
e 46 69
e 46 83
e 46 84
e 46 86
e 46 87
e 46 89
e 46 92
e 47 63
e 47 64
e 47 67
e 47 69
e 47 81
e 47 82
e 47 85
e 47 87
e 47 89
e 47 92
e 48 65
e 48 66
e 48 67
e 48 68
e 48 83
e 48 84
e 48 85
e 48 86
e 48 89
e 48 92
e 49 71
e 49 73
e 49 88
e 49 90
e 49 92
e 50 70
e 50 72
e 50 88
e 50 90
e 50 92
e 51 71
e 51 75
e 51 77
e 51 88
e 51 90
e 51 92
e 52 70
e 52 74
e 52 77
e 52 88
e 52 90
e 52 92
e 53 73
e 53 76
e 53 78
e 53 88
e 53 90
e 53 92
e 54 72
e 54 76
e 54 78
e 54 88
e 54 90
e 54 92
e 55 74
e 55 75
e 55 77
e 55 78
e 55 88
e 55 90
e 55 92
e 56 72
e 56 73
e 56 76
e 56 78
e 56 88
e 56 90
e 56 92
e 57 74
e 57 75
e 57 76
e 57 77
e 57 88
e 57 90
e 57 92
e 58 79
e 58 80
e 58 81
e 58 82
e 58 83
e 58 84
e 58 85
e 58 86
e 58 87
e 58 89
e 58 90
e 58 92
e 59 70
e 59 71
e 59 72
e 59 73
e 59 74
e 59 75
e 59 76
e 59 77
e 59 78
e 59 88
e 59 90
e 59 92
e 60 79
e 60 80
e 60 81
e 60 82
e 60 83
e 60 84
e 60 85
e 60 86
e 60 87
e 60 88
e 60 89
e 60 92
e 61 91
e 61 93
e 62 91
e 62 93
e 63 91
e 63 93
e 64 91
e 64 93
e 65 91
e 65 93
e 66 91
e 66 93
e 67 91
e 67 93
e 68 91
e 68 93
e 69 91
e 69 93
e 70 91
e 70 93
e 71 91
e 71 93
e 72 91
e 72 93
e 73 91
e 73 93
e 74 91
e 74 93
e 75 91
e 75 93
e 76 91
e 76 93
e 77 91
e 77 93
e 78 91
e 78 93
e 79 91
e 79 93
e 80 91
e 80 93
e 81 91
e 81 93
e 82 91
e 82 93
e 83 91
e 83 93
e 84 91
e 84 93
e 85 91
e 85 93
e 86 91
e 86 93
e 87 91
e 87 93
e 88 91
e 88 93
e 89 91
e 89 93
e 90 91
e 90 93
e 91 92
e 91 93
e 92 93